NAME: instance_961
TYPE: TSP
DIMENSION: 20
EDGE_WEIGHT_TYPE: EUC_2D
NODE_COORD_SECTION
0 10.80 35.24
1 70.02 90.02
2 76.04 51.82
3 21.41 82.48
4 5.04 65.44
5 21.14 23.13
6 33.02 45.83
7 13.29 86.33
8 9.44 15.66
9 33.88 80.33
10 94.19 71.43
11 36.72 93.89
12 11.92 71.39
13 31.58 53.72
14 35.44 4.76
15 29.19 93.90
16 52.73 94.60
17 29.62 23.67
18 6.84 34.46
19 91.53 78.65
EOF
